/*********************************************
 * OPL 12.8.0.0 Data
 * Author: dharini
 * Creation Date: Nov 3, 2018 at 1:56:55 PM
 *********************************************/
tau = 5;

R = 2;

ak = [<0,100>, <5,150>, <20,300>, <10,400>, <35,500>];
qk = [1,1,1,1,1];
dk = [10,10,10,10,10];

velocity = 10;